1 -1 2 0
1 -1 3 0
1 -1 4 0
1 -1 -5 0
1 1 -6 0
1 1 -7 0
1 2 8 0
1 2 -3 0
1 -2 -4 0
1 2 1 0
1 2 5 0
1 -2 -7 0
1 -9 10 0
1 -9 11 0
1 -9 -3 0
1 -9 4 0
1 -9 12 0
1 -9 -13 0
1 9 -5 0
1 9 -7 0
1 11 14 0
1 -11 -10 0
1 -11 -15 0
1 11 3 0
1 -11 -4 0
1 -11 -12 0
1 11 -16 0
1 11 -9 0
1 11 -5 0
1 -11 7 0
1 -4 17 0
1 -4 -18 0
1 4 19 0
1 4 2 0
1 4 -20 0
1 4 -21 0
1 4 22 0
1 -4 23 0
1 4 9 0
1 -4 1 0
1 4 7 0
1 -7 24 0
1 -7 -17 0
1 7 -18 0
1 7 -19 0
1 7 2 0
1 7 4 0
1 7 -21 0
1 7 23 0
1 -7 -1 0
1 -3 17 0
1 3 25 0
1 -3 26 0
1 -3 11 0
1 -3 2 0
1 3 -21 0
1 -3 -27 0
1 3 -9 0
1 -3 -1 0
1 -5 -17 0
1 -5 25 0
1 5 11 0
1 5 2 0
1 5 -3 0
1 -5 -21 0
1 -5 27 0
1 -5 -9 0
1 5 -1 0
1 5 -28 0
1 23 14 0
1 23 -19 0
1 -23 -4 0
1 -23 12 0
1 23 -29 0
1 -19 -14 0
1 19 -10 0
1 -19 26 0
1 -19 -4 0
1 -19 -12 0
1 19 -16 0
1 -19 -23 0
1 -19 -7 0
1 -22 -18 0
1 22 -30 0
1 -22 31 0
1 -22 -27 0
1 22 32 0
1 22 7 0
1 18 10 0
1 18 30 0
1 -18 -25 0
1 -18 -33 0
1 -18 -12 0
1 -18 -16 0
1 18 32 0
1 18 -7 0
1 -16 34 0
1 -16 -35 0
1 -16 10 0
1 -16 18 0
1 -16 -19 0
1 -16 -11 0
1 16 36 0
1 -16 -37 0
1 16 -38 0
1 -16 -23 0
1 16 -9 0
1 16 -39 0
1 10 -34 0
1 -10 35 0
1 10 -40 0
1 10 -18 0
1 10 -19 0
1 10 11 0
1 10 -36 0
1 10 37 0
1 10 -41 0
1 10 16 0
1 10 -22 0
1 10 23 0
1 10 -9 0
1 10 39 0
1 -12 -42 0
1 12 -17 0
1 12 -18 0
1 12 11 0
1 12 -36 0
1 12 21 0
1 -12 -22 0
1 -12 9 0
1 14 42 0
1 14 -43 0
1 14 -17 0
1 14 18 0
1 14 -19 0
1 14 -11 0
1 -14 36 0
1 14 12 0
1 14 44 0
1 14 21 0
1 14 23 0
1 -14 -9 0
1 14 39 0
1 -41 10 0
1 -41 30 0
1 -41 -16 0
1 41 21 0
1 41 -31 0
1 -41 -32 0
1 -35 -17 0
1 35 30 0
1 35 -33 0
1 -35 -41 0
1 35 16 0
1 -35 31 0
1 -35 -32 0
1 -37 30 0
1 37 -33 0
1 37 -44 0
1 -37 16 0
1 -37 31 0
1 37 -32 0
1 34 -10 0
1 -34 30 0
1 -34 -16 0
1 34 -31 0
1 -34 32 0
1 32 34 0
1 32 18 0
1 32 -33 0
1 -32 45 0
1 32 -37 0
1 -32 22 0
1 33 34 0
1 33 -35 0
1 33 18 0
1 33 46 0
1 33 22 0
1 33 47 0
1 31 34 0
1 31 35 0
1 31 -18 0
1 31 -30 0
1 -31 48 0
1 -31 36 0
1 -31 37 0
1 -31 41 0
1 -31 49 0
1 31 -47 0
1 -31 50 0
1 -31 39 0
1 -30 -34 0
1 30 35 0
1 -30 -18 0
1 -30 48 0
1 -30 37 0
1 -30 -41 0
1 -30 -22 0
1 30 -31 0
1 30 -47 0
1 -30 50 0
1 30 -39 0
1 -6 51 0
1 -6 8 0
1 6 -52 0
1 6 53 0
1 -6 1 0
1 8 54 0
1 -8 2 0
1 -8 -55 0
1 -8 -52 0
1 -8 -53 0
1 -8 6 0
1 13 -54 0
1 13 -56 0
1 13 57 0
1 13 15 0
1 -13 58 0
1 13 -59 0
1 -13 -60 0
1 -15 -54 0
1 15 -51 0
1 -15 56 0
1 15 -57 0
1 -15 11 0
1 -15 61 0
1 -15 -52 0
1 -15 -53 0
1 -15 58 0
1 15 -59 0
1 -15 -13 0
1 51 -62 0
1 51 25 0
1 -51 63 0
1 51 -26 0
1 -51 -15 0
1 51 53 0
1 -51 64 0
1 -51 -27 0
1 -51 -29 0
1 51 -6 0
1 -53 -51 0
1 53 -25 0
1 -53 15 0
1 -53 8 0
1 -53 -65 0
1 -53 -64 0
1 53 27 0
1 53 29 0
1 -53 13 0
1 -53 -6 0
1 -54 62 0
1 -54 -66 0
1 -54 67 0
1 54 -15 0
1 54 8 0
1 54 64 0
1 54 -68 0
1 54 -69 0
1 -54 -6 0
1 -52 -54 0
1 -52 -62 0
1 -52 67 0
1 -52 15 0
1 52 8 0
1 52 -70 0
1 52 -64 0
1 52 -69 0
1 -52 13 0
1 52 -6 0
1 29 -51 0
1 29 -56 0
1 -29 26 0
1 29 57 0
1 29 -3 0
1 -29 -53 0
1 29 58 0
1 -29 -69 0
1 29 5 0
1 -26 56 0
1 -26 -19 0
1 26 -57 0
1 -26 67 0
1 -26 -3 0
1 -26 53 0
1 -26 -58 0
1 26 59 0
1 -26 29 0
1 -27 51 0
1 -27 25 0
1 -27 56 0
1 27 -57 0
1 -27 71 0
1 -27 72 0
1 -27 -53 0
1 27 58 0
1 27 68 0
1 27 73 0
1 -27 -74 0
1 25 -59 0
1 -25 -51 0
1 -25 18 0
1 -25 -66 0
1 -25 -72 0
1 -25 -3 0
1 25 -53 0
1 25 27 0
1 25 73 0
1 -25 -5 0
1 -57 59 0
1 -57 42 0
1 57 17 0
1 -57 -25 0
1 57 75 0
1 -57 15 0
1 57 76 0
1 57 44 0
1 -57 -27 0
1 57 -13 0
1 -59 77 0
1 59 -17 0
1 -59 -25 0
1 -59 26 0
1 59 57 0
1 59 -15 0
1 -59 -76 0
1 59 44 0
1 59 21 0
1 -59 27 0
1 -59 -78 0
1 59 29 0
1 -59 -13 0
1 -56 -77 0
1 56 79 0
1 -56 -62 0
1 -56 -25 0
1 56 80 0
1 56 -15 0
1 -56 81 0
1 -56 58 0
1 56 -64 0
1 56 29 0
1 56 13 0
1 -58 77 0
1 58 -79 0
1 58 -62 0
1 58 25 0
1 58 56 0
1 -58 -26 0
1 58 -15 0
1 58 -76 0
1 -58 -81 0
1 58 82 0
1 -58 -29 0
1 -58 13 0
1 -21 -14 0
1 -21 17 0
1 21 57 0
1 -21 71 0
1 21 -72 0
1 -21 -4 0
1 -21 -41 0
1 21 -64 0
1 -21 -59 0
1 21 -73 0
1 21 5 0
1 21 7 0
1 -17 14 0
1 17 -35 0
1 17 57 0
1 -17 -12 0
1 -17 21 0
1 -17 -59 0
1 -17 -73 0
1 17 7 0
1 44 14 0
1 44 57 0
1 44 -71 0
1 44 20 0
1 44 -12 0
1 44 37 0
1 -44 -81 0
1 -44 -59 0
1 44 73 0
1 -44 -74 0
1 44 28 0
1 -42 24 0
1 -42 -34 0
1 -42 -14 0
1 42 57 0
1 42 -71 0
1 42 -72 0
1 42 83 0
1 -42 -20 0
1 42 12 0
1 -42 44 0
1 -42 -73 0
1 42 -74 0
1 -42 28 0
1 -72 17 0
1 72 -25 0
1 72 84 0
1 72 48 0
1 72 -85 0
1 -72 36 0
1 -72 44 0
1 -72 21 0
1 -72 74 0
1 -72 86 0
1 -72 50 0
1 72 -39 0
1 74 -42 0
1 74 -25 0
1 74 72 0
1 -74 -84 0
1 74 -48 0
1 -74 -36 0
1 74 -87 0
1 74 44 0
1 74 21 0
1 74 50 0
1 74 -39 0
1 71 77 0
1 -71 -42 0
1 71 17 0
1 71 25 0
1 -71 88 0
1 -71 84 0
1 71 89 0
1 -71 -76 0
1 71 -44 0
1 71 21 0
1 71 27 0
1 -71 -73 0
1 71 -86 0
1 -71 -90 0
1 -73 77 0
1 -73 -42 0
1 -73 -17 0
1 73 25 0
1 -73 -71 0
1 73 84 0
1 73 -89 0
1 -73 -76 0
1 -73 44 0
1 -73 -21 0
1 73 -91 0
1 73 86 0
1 -73 -90 0
1 36 -14 0
1 36 10 0
1 -36 -30 0
1 -36 -76 0
1 36 -12 0
1 -36 -20 0
1 36 -16 0
1 -36 -31 0
1 36 -74 0
1 36 28 0
1 -36 39 0
1 39 -77 0
1 39 -14 0
1 -39 -24 0
1 -39 -10 0
1 -39 30 0
1 39 -72 0
1 -39 -36 0
1 39 -20 0
1 -39 -12 0
1 -39 16 0
1 -39 31 0
1 39 74 0
1 39 28 0
1 -48 -24 0
1 -48 -43 0
1 -48 -40 0
1 -48 30 0
1 -48 72 0
1 48 89 0
1 48 83 0
1 48 20 0
1 -48 92 0
1 -48 -74 0
1 -48 50 0
1 48 -28 0
1 -50 24 0
1 -50 43 0
1 -50 40 0
1 50 72 0
1 50 -48 0
1 -50 20 0
1 50 -92 0
1 50 -38 0
1 -50 -31 0
1 -50 28 0
1 -50 -90 0
1 20 24 0
1 -20 -42 0
1 -20 93 0
1 -20 94 0
1 -20 45 0
1 20 -48 0
1 -20 -36 0
1 20 -4 0
1 -20 95 0
1 20 96 0
1 20 -47 0
1 20 -50 0
1 -24 97 0
1 -24 -42 0
1 24 -93 0
1 -24 -94 0
1 -24 -45 0
1 24 36 0
1 -24 -20 0
1 -24 -44 0
1 24 7 0
1 -24 95 0
1 24 -96 0
1 -24 -47 0
1 -24 50 0
1 83 -93 0
1 83 -98 0
1 -83 84 0
1 -83 -48 0
1 83 -3 0
1 83 -36 0
1 -83 -99 0
1 83 -44 0
1 83 -95 0
1 -83 -100 0
1 83 86 0
1 -83 28 0
1 83 -39 0
1 28 93 0
1 -28 98 0
1 28 -84 0
1 28 -48 0
1 -28 -83 0
1 28 -36 0
1 -28 44 0
1 -28 -5 0
1 -28 95 0
1 28 50 0
1 -28 101 0
1 -45 -43 0
1 -45 -30 0
1 -45 33 0
1 45 20 0
1 45 -92 0
1 -45 -38 0
1 45 31 0
1 -45 -32 0
1 45 -47 0
1 47 24 0
1 47 -43 0
1 47 40 0
1 47 -30 0
1 47 33 0
1 -47 45 0
1 -47 20 0
1 -47 38 0
1 47 32 0
1 47 -86 0
1 94 24 0
1 94 -43 0
1 94 -102 0
1 -94 96 0
1 94 -46 0
1 94 -98 0
1 -94 -20 0
1 -94 -92 0
1 -94 -38 0
1 94 -103 0
1 96 -24 0
1 96 43 0
1 96 40 0
1 -96 102 0
1 -96 46 0
1 96 94 0
1 -96 -20 0
1 96 -92 0
1 -96 -38 0
1 96 -49 0
1 96 103 0
1 38 104 0
1 -38 -40 0
1 38 105 0
1 38 94 0
1 -38 -45 0
1 -38 -48 0
1 38 106 0
1 38 -16 0
1 38 -107 0
1 -38 -108 0
1 38 96 0
1 38 50 0
1 40 10 0
1 -40 104 0
1 40 -109 0
1 -40 105 0
1 -40 110 0
1 -40 94 0
1 40 45 0
1 -40 -48 0
1 -40 -106 0
1 -40 -107 0
1 -40 38 0
1 40 111 0
1 -40 -96 0
1 40 47 0
1 40 -50 0
1 -92 43 0
1 92 -112 0
1 92 93 0
1 -92 -94 0
1 92 -45 0
1 -92 -48 0
1 92 -12 0
1 92 -106 0
1 92 -113 0
1 -92 114 0
1 -92 95 0
1 -92 -96 0
1 -92 47 0
1 92 50 0
1 -43 115 0
1 -43 -104 0
1 43 -112 0
1 43 93 0
1 -43 -94 0
1 43 -106 0
1 43 -92 0
1 -43 114 0
1 43 -47 0
1 -43 50 0
1 110 40 0
1 -110 -102 0
1 -110 46 0
1 110 93 0
1 -110 -49 0
1 -110 -38 0
1 -110 111 0
1 -110 103 0
1 111 40 0
1 -111 -102 0
1 -111 -38 0
1 111 49 0
1 111 -95 0
1 -111 103 0
1 105 -40 0
1 105 102 0
1 105 46 0
1 105 -38 0
1 105 -49 0
1 105 103 0
1 107 40 0
1 107 105 0
1 -107 -102 0
1 107 46 0
1 -107 -38 0
1 107 -114 0
1 -107 -49 0
1 -107 -103 0
1 103 116 0
1 103 -110 0
1 103 -46 0
1 -103 -94 0
1 -103 -117 0
1 -103 -107 0
1 103 111 0
1 103 32 0
1 -103 118 0
1 46 -116 0
1 -46 105 0
1 46 33 0
1 -46 -110 0
1 -46 -111 0
1 -46 96 0
1 49 116 0
1 49 119 0
1 -49 -104 0
1 49 102 0
1 -49 94 0
1 -49 -117 0
1 -49 120 0
1 -49 -106 0
1 49 31 0
1 49 -111 0
1 49 121 0
1 49 -96 0
1 102 -116 0
1 -102 104 0
1 -102 30 0
1 -102 -105 0
1 -102 122 0
1 102 110 0
1 -102 -94 0
1 -102 120 0
1 102 106 0
1 102 107 0
1 102 111 0
1 102 96 0
1 123 124 0
1 123 -125 0
1 -123 126 0
1 -123 -6 0
1 55 124 0
1 -55 -125 0
1 55 8 0
1 55 126 0
1 55 -127 0
1 55 123 0
1 60 -124 0
1 -60 125 0
1 60 61 0
1 -60 128 0
1 -60 126 0
1 60 127 0
1 -60 129 0
1 -60 13 0
1 -60 -130 0
1 -61 -124 0
1 -61 -125 0
1 -61 15 0
1 61 -128 0
1 -61 126 0
1 -61 -130 0
1 -61 129 0
1 127 66 0
1 -127 125 0
1 127 67 0
1 127 61 0
1 127 -55 0
1 -127 68 0
1 -127 -69 0
1 -127 123 0
1 -125 127 0
1 125 66 0
1 125 -61 0
1 -125 55 0
1 -125 -68 0
1 125 -69 0
1 -125 60 0
1 125 -123 0
1 126 -131 0
1 -126 124 0
1 -126 61 0
1 126 -55 0
1 -126 60 0
1 -124 132 0
1 124 -55 0
1 -124 126 0
1 124 60 0
1 -124 -123 0
1 69 54 0
1 -69 -67 0
1 -69 133 0
1 69 -128 0
1 -69 -52 0
1 69 127 0
1 69 29 0
1 69 129 0
1 -69 130 0
1 -67 54 0
1 -67 125 0
1 67 -133 0
1 67 -128 0
1 67 -129 0
1 -67 -52 0
1 -67 69 0
1 -68 -54 0
1 68 66 0
1 -68 -133 0
1 68 -128 0
1 68 134 0
1 -68 52 0
1 68 -127 0
1 68 -129 0
1 -68 130 0
1 -66 135 0
1 -66 -54 0
1 -66 -127 0
1 -66 25 0
1 -66 -125 0
1 -66 -133 0
1 -66 -128 0
1 66 136 0
1 66 52 0
1 -66 68 0
1 -66 -129 0
1 66 130 0
1 -66 137 0
1 -130 -138 0
1 -130 -79 0
1 130 62 0
1 -130 -66 0
1 -130 -67 0
1 -130 61 0
1 130 -139 0
1 -130 -68 0
1 130 -69 0
1 -130 -60 0
1 130 140 0
1 -128 138 0
1 -128 79 0
1 -128 62 0
1 128 66 0
1 128 -67 0
1 128 141 0
1 128 -81 0
1 128 64 0
1 -128 -130 0
1 128 68 0
1 -128 69 0
1 -128 -60 0
1 -129 138 0
1 129 -66 0
1 129 67 0
1 129 -68 0
1 -129 -69 0
1 129 -142 0
1 -129 60 0
1 -133 -138 0
1 133 66 0
1 133 67 0
1 -133 -143 0
1 -133 61 0
1 133 -139 0
1 -133 68 0
1 133 69 0
1 133 -60 0
1 64 135 0
1 64 54 0
1 64 -62 0
1 64 -56 0
1 64 128 0
1 -64 134 0
1 64 52 0
1 64 53 0
1 -64 -21 0
1 -64 -130 0
1 64 -137 0
1 62 135 0
1 -62 54 0
1 -62 -17 0
1 -62 51 0
1 -62 -56 0
1 -62 -128 0
1 62 -136 0
1 62 -134 0
1 -62 -52 0
1 -62 -53 0
1 -62 -58 0
1 -62 64 0
1 -62 130 0
1 62 137 0
1 -81 135 0
1 81 -79 0
1 -81 144 0
1 -81 -63 0
1 -81 56 0
1 -81 136 0
1 81 134 0
1 -81 -70 0
1 81 44 0
1 81 -65 0
1 81 -58 0
1 81 -137 0
1 79 -135 0
1 79 -42 0
1 -79 -63 0
1 79 -56 0
1 79 -128 0
1 79 136 0
1 79 134 0
1 79 70 0
1 -79 65 0
1 -79 130 0
1 -135 145 0
1 135 -79 0
1 135 -62 0
1 135 66 0
1 -135 -146 0
1 135 -89 0
1 135 -81 0
1 -135 -64 0
1 135 -68 0
1 135 90 0
1 -134 135 0
1 -134 -79 0
1 -134 62 0
1 134 -66 0
1 134 146 0
1 -134 89 0
1 134 -147 0
1 -134 -76 0
1 -134 81 0
1 134 -64 0
1 134 68 0
1 -134 148 0
1 134 90 0
1 137 138 0
1 137 79 0
1 137 -62 0
1 -137 -149 0
1 137 66 0
1 -137 -136 0
1 137 146 0
1 -137 -150 0
1 137 139 0
1 -137 -81 0
1 -137 -64 0
1 -137 68 0
1 -136 -138 0
1 -136 -79 0
1 136 -66 0
1 136 146 0
1 -136 151 0
1 -136 -139 0
1 136 81 0
1 136 64 0
1 -136 -68 0
1 136 148 0
1 -136 -137 0
1 136 -152 0
1 76 135 0
1 -76 144 0
1 -76 63 0
1 76 -71 0
1 -76 -134 0
1 -76 -36 0
1 76 139 0
1 76 -70 0
1 -76 58 0
1 -76 59 0
1 -76 73 0
1 77 135 0
1 -77 138 0
1 -77 -144 0
1 77 57 0
1 77 -71 0
1 77 -134 0
1 77 -76 0
1 -77 -70 0
1 -77 -65 0
1 -77 -59 0
1 -77 73 0
1 -89 135 0
1 89 -144 0
1 89 -63 0
1 -89 -75 0
1 -89 71 0
1 -89 48 0
1 -89 -150 0
1 -89 70 0
1 -89 65 0
1 -89 82 0
1 89 78 0
1 -89 73 0
1 89 -90 0
1 90 -135 0
1 -90 -144 0
1 90 63 0
1 -90 -80 0
1 -90 71 0
1 -90 -134 0
1 90 70 0
1 90 -65 0
1 -90 82 0
1 -90 50 0
1 -90 152 0
1 -63 77 0
1 -63 -79 0
1 63 -51 0
1 63 -153 0
1 -63 154 0
1 -63 -98 0
1 -63 -84 0
1 -63 89 0
1 -63 81 0
1 63 65 0
1 -63 -155 0
1 -63 100 0
1 63 86 0
1 63 90 0
1 65 77 0
1 65 79 0
1 65 -154 0
1 65 -98 0
1 65 -84 0
1 65 76 0
1 -65 53 0
1 -65 81 0
1 65 -100 0
1 65 -86 0
1 -65 90 0
1 -144 -77 0
1 -144 -54 0
1 -144 79 0
1 144 -156 0
1 -144 -146 0
1 144 -89 0
1 -144 76 0
1 -144 70 0
1 144 81 0
1 -144 155 0
1 144 -157 0
1 -144 90 0
1 70 77 0
1 -70 -79 0
1 70 144 0
1 -70 154 0
1 70 -158 0
1 70 -146 0
1 -70 -89 0
1 70 76 0
1 -70 -52 0
1 -70 81 0
1 70 155 0
1 -70 -157 0
1 70 90 0
1 84 63 0
1 -84 80 0
1 -84 75 0
1 -84 71 0
1 84 45 0
1 84 -146 0
1 -84 83 0
1 84 65 0
1 84 78 0
1 84 -86 0
1 -84 28 0
1 86 63 0
1 -86 -80 0
1 -86 75 0
1 86 -71 0
1 -86 74 0
1 86 72 0
1 86 84 0
1 86 65 0
1 -86 -82 0
1 -86 73 0
1 -86 47 0
1 -86 -148 0
1 86 28 0
1 98 63 0
1 -98 91 0
1 -98 80 0
1 -98 -75 0
1 98 88 0
1 98 -158 0
1 98 85 0
1 98 -83 0
1 98 -65 0
1 -98 -82 0
1 -98 -78 0
1 98 -100 0
1 98 87 0
1 -98 28 0
1 -100 63 0
1 -100 75 0
1 100 98 0
1 100 85 0
1 -100 -83 0
1 100 82 0
1 100 96 0
1 -100 -91 0
1 100 -87 0
1 100 28 0
1 -75 -78 0
1 -75 -159 0
1 -75 -112 0
1 -75 -57 0
1 -75 -93 0
1 -75 160 0
1 -75 -84 0
1 75 89 0
1 75 95 0
1 75 -86 0
1 -75 -90 0
1 78 159 0
1 -78 -112 0
1 -78 75 0
1 78 84 0
1 -78 -89 0
1 -78 -161 0
1 78 114 0
1 -78 59 0
1 -78 95 0
1 -78 162 0
1 78 -100 0
1 -78 -90 0
1 -80 -56 0
1 -80 -163 0
1 -80 164 0
1 -80 154 0
1 -80 -98 0
1 80 -84 0
1 -80 -161 0
1 -80 82 0
1 80 165 0
1 80 100 0
1 -80 -86 0
1 -80 -90 0
1 -82 -159 0
1 -82 166 0
1 82 80 0
1 82 -163 0
1 82 154 0
1 82 98 0
1 -82 89 0
1 82 -58 0
1 -82 165 0
1 -82 -155 0
1 -82 100 0
1 -82 -86 0
1 82 90 0
1 -93 -24 0
1 93 43 0
1 93 -110 0
1 -93 -75 0
1 -93 -88 0
1 93 -83 0
1 93 20 0
1 -93 92 0
1 93 95 0
1 93 -91 0
1 93 87 0
1 -93 -28 0
1 95 -24 0
1 95 43 0
1 95 -93 0
1 -95 -75 0
1 95 -88 0
1 95 85 0
1 -95 83 0
1 -95 20 0
1 -95 92 0
1 95 -111 0
1 95 -78 0
1 95 -155 0
1 95 91 0
1 95 -87 0
1 95 28 0
1 112 97 0
1 -112 -75 0
1 112 -88 0
1 112 -85 0
1 112 -99 0
1 -112 167 0
1 112 -92 0
1 -112 114 0
1 -112 -78 0
1 112 91 0
1 -112 87 0
1 -112 -101 0
1 114 -97 0
1 -114 -43 0
1 -114 112 0
1 -114 -75 0
1 -114 88 0
1 114 99 0
1 114 -167 0
1 114 92 0
1 114 -107 0
1 -114 -91 0
1 -114 -87 0
1 -114 101 0
1 -85 168 0
1 85 119 0
1 -85 -104 0
1 85 112 0
1 -85 93 0
1 -85 98 0
1 -85 -72 0
1 -85 169 0
1 -85 -106 0
1 -85 -95 0
1 -85 87 0
1 -87 -168 0
1 -87 -119 0
1 -87 -98 0
1 -87 85 0
1 -87 170 0
1 87 120 0
1 -87 -106 0
1 -87 -95 0
1 -87 74 0
1 87 171 0
1 88 168 0
1 88 172 0
1 88 -159 0
1 -88 -91 0
1 -88 -93 0
1 -88 71 0
1 88 173 0
1 -88 170 0
1 -88 161 0
1 -88 -114 0
1 88 -95 0
1 88 -100 0
1 91 -168 0
1 91 172 0
1 -91 -159 0
1 91 -112 0
1 91 -93 0
1 -91 -98 0
1 91 88 0
1 91 -170 0
1 -91 -174 0
1 -91 -161 0
1 91 -114 0
1 -91 95 0
1 -91 -73 0
1 104 -40 0
1 104 102 0
1 -104 -85 0
1 -104 -99 0
1 104 167 0
1 104 106 0
1 104 -92 0
1 104 -38 0
1 104 49 0
1 -104 -87 0
1 104 101 0
1 106 -97 0
1 -106 -43 0
1 -106 104 0
1 106 -40 0
1 106 102 0
1 -106 -99 0
1 106 167 0
1 -106 -92 0
1 -106 161 0
1 -106 38 0
1 106 -49 0
1 -106 87 0
1 106 -101 0
1 119 -97 0
1 119 172 0
1 -119 115 0
1 119 -109 0
1 119 102 0
1 -119 85 0
1 119 99 0
1 -119 120 0
1 119 167 0
1 119 113 0
1 119 101 0
1 120 97 0
1 -120 -119 0
1 120 115 0
1 120 -102 0
1 120 85 0
1 -120 -99 0
1 120 174 0
1 -120 -167 0
1 -120 -113 0
1 120 -108 0
1 120 -49 0
1 -120 101 0
1 -167 116 0
1 -167 -119 0
1 167 104 0
1 167 112 0
1 167 175 0
1 167 176 0
1 167 117 0
1 167 -120 0
1 167 -20 0
1 -167 106 0
1 -167 114 0
1 -167 177 0
1 -167 -178 0
1 -97 -116 0
1 -97 -24 0
1 -97 104 0
1 97 -112 0
1 97 -175 0
1 97 -176 0
1 -97 117 0
1 -97 120 0
1 97 167 0
1 97 114 0
1 97 -177 0
1 97 178 0
1 -99 -168 0
1 -99 119 0
1 99 -104 0
1 -99 -112 0
1 -99 175 0
1 99 -179 0
1 99 -83 0
1 -99 120 0
1 -99 -101 0
1 99 180 0
1 101 -168 0
1 -101 -119 0
1 101 -112 0
1 101 -175 0
1 -101 179 0
1 101 -170 0
1 101 -120 0
1 -101 -99 0
1 101 -106 0
1 101 -114 0
1 -101 -28 0
1 -101 -180 0
1 116 168 0
1 -116 97 0
1 -116 -115 0
1 116 46 0
1 -116 117 0
1 116 167 0
1 116 113 0
1 -116 -108 0
1 116 -49 0
1 -116 -103 0
1 -117 116 0
1 -117 97 0
1 117 -115 0
1 -117 109 0
1 117 -102 0
1 117 46 0
1 117 -167 0
1 117 113 0
1 117 -108 0
1 -117 49 0
1 117 103 0
1 178 -97 0
1 178 115 0
1 178 -109 0
1 -178 122 0
1 -178 -176 0
1 -178 167 0
1 -178 108 0
1 -178 118 0
1 -178 -180 0
1 176 97 0
1 176 115 0
1 -176 -109 0
1 176 179 0
1 176 -113 0
1 -176 108 0
1 176 121 0
1 176 118 0
1 -176 178 0
1 108 -116 0
1 108 -119 0
1 -108 -181 0
1 -108 176 0
1 -108 117 0
1 108 120 0
1 108 -38 0
1 -108 182 0
1 -108 -183 0
1 108 -178 0
1 -109 116 0
1 109 -119 0
1 109 -181 0
1 109 184 0
1 109 120 0
1 -109 -108 0
1 -109 -183 0
1 -109 178 0
1 113 -116 0
1 113 -119 0
1 113 115 0
1 113 -185 0
1 -113 -175 0
1 -113 117 0
1 -113 -120 0
1 -113 -186 0
1 -113 178 0
1 115 116 0
1 115 119 0
1 -115 -175 0
1 115 -176 0
1 -115 117 0
1 115 120 0
1 115 113 0
1 -115 177 0
1 -115 178 0
1 183 109 0
1 -183 122 0
1 183 -187 0
1 183 -184 0
1 -183 -121 0
1 -183 -118 0
1 183 -177 0
1 184 109 0
1 -184 -187 0
1 -184 -175 0
1 184 -108 0
1 184 121 0
1 -184 -118 0
1 184 183 0
1 182 -109 0
1 182 181 0
1 182 187 0
1 -182 -108 0
1 182 -118 0
1 182 186 0
1 -181 -118 0
1 -181 -109 0
1 -181 122 0
1 181 -187 0
1 181 185 0
1 -181 108 0
1 181 182 0
1 118 -181 0
1 118 -184 0
1 -118 -176 0
1 -118 103 0
1 118 -182 0
1 -118 183 0
1 -187 -46 0
1 187 181 0
1 187 184 0
1 -187 -182 0
1 187 178 0
1 -121 122 0
1 121 181 0
1 -121 -184 0
1 121 -176 0
1 -121 -49 0
1 121 -182 0
1 -121 -183 0
1 121 -178 0
1 122 -102 0
1 -122 -181 0
1 -122 184 0
1 -122 121 0
1 122 -182 0
1 -122 183 0
1 122 -178 0
1 -139 138 0
1 139 -132 0
1 -139 188 0
1 -139 -133 0
1 139 -128 0
1 -139 -76 0
1 -139 131 0
1 139 -189 0
1 -139 -129 0
1 139 130 0
1 139 137 0
1 138 77 0
1 138 -132 0
1 138 -188 0
1 -138 133 0
1 138 128 0
1 -138 -136 0
1 138 139 0
1 -138 -131 0
1 -138 189 0
1 138 -129 0
1 -138 -130 0
1 138 137 0
1 150 132 0
1 150 -188 0
1 150 143 0
1 -150 136 0
1 150 89 0
1 150 -131 0
1 150 -189 0
1 -150 -142 0
1 150 152 0
1 -152 -188 0
1 -152 -143 0
1 152 -141 0
1 152 136 0
1 152 -150 0
1 -152 131 0
1 152 189 0
1 152 140 0
1 -152 137 0
1 152 -90 0
1 -189 138 0
1 -189 188 0
1 189 146 0
1 189 150 0
1 -189 -139 0
1 189 157 0
1 -189 -148 0
1 189 -152 0
1 188 -138 0
1 -188 -125 0
1 188 190 0
1 -188 158 0
1 188 -146 0
1 188 150 0
1 188 189 0
1 188 -157 0
1 188 -148 0
1 -188 -152 0
1 131 138 0
1 131 -132 0
1 131 150 0
1 -131 139 0
1 -131 -126 0
1 131 191 0
1 -131 -152 0
1 -132 138 0
1 132 -124 0
1 132 150 0
1 -132 -139 0
1 132 131 0
1 132 -152 0
1 -146 -135 0
1 146 -144 0
1 146 188 0
1 -146 141 0
1 146 84 0
1 -146 -136 0
1 146 -134 0
1 -146 70 0
1 146 189 0
1 146 142 0
1 -146 140 0
1 -146 -137 0
1 148 -144 0
1 -148 -188 0
1 148 -143 0
1 -148 -141 0
1 -148 136 0
1 148 146 0
1 -148 70 0
1 148 142 0
1 148 -86 0
1 -148 140 0
1 -158 -145 0
1 158 188 0
1 158 143 0
1 158 98 0
1 -158 -141 0
1 158 -151 0
1 158 -147 0
1 -158 70 0
1 -158 142 0
1 -158 -189 0
1 158 -157 0
1 157 -145 0
1 157 144 0
1 -157 188 0
1 -157 -143 0
1 157 -158 0
1 157 -151 0
1 -157 147 0
1 -157 189 0
1 -157 -100 0
1 -157 -142 0
1 157 -140 0
1 157 -149 0
1 140 -192 0
1 140 -163 0
1 140 154 0
1 140 -158 0
1 -140 146 0
1 -140 150 0
1 140 193 0
1 140 -165 0
1 -140 -155 0
1 -140 -157 0
1 140 -194 0
1 -140 152 0
1 -141 -192 0
1 141 -154 0
1 -141 -128 0
1 141 -146 0
1 -141 -150 0
1 -141 -193 0
1 141 165 0
1 141 155 0
1 141 -157 0
1 -141 -140 0
1 -141 -148 0
1 -141 152 0
1 -142 -192 0
1 -142 143 0
1 -142 158 0
1 -142 -150 0
1 -142 -157 0
1 142 -195 0
1 -142 152 0
1 143 -133 0
1 143 -158 0
1 -143 196 0
1 -143 146 0
1 -143 150 0
1 143 193 0
1 143 157 0
1 143 148 0
1 -143 -152 0
1 -154 145 0
1 154 144 0
1 154 63 0
1 -154 141 0
1 -154 -151 0
1 -154 147 0
1 -154 70 0
1 -154 155 0
1 -154 140 0
1 -154 149 0
1 -155 -144 0
1 155 63 0
1 -155 80 0
1 155 154 0
1 155 141 0
1 -155 -151 0
1 -155 -147 0
1 -155 -70 0
1 155 -65 0
1 155 82 0
1 -155 95 0
1 155 140 0
1 155 149 0
1 163 -145 0
1 163 153 0
1 -163 80 0
1 -163 112 0
1 163 141 0
1 -163 151 0
1 163 147 0
1 163 197 0
1 -163 -198 0
1 163 82 0
1 163 -165 0
1 -163 -140 0
1 -163 -149 0
1 -165 145 0
1 165 -156 0
1 -165 -153 0
1 165 80 0
1 -165 -163 0
1 -165 141 0
1 -165 151 0
1 165 197 0
1 165 -82 0
1 165 140 0
1 -165 149 0
1 145 135 0
1 145 199 0
1 -145 172 0
1 -145 200 0
1 145 159 0
1 -145 163 0
1 -145 -154 0
1 -145 -158 0
1 -145 147 0
1 145 -201 0
1 145 -174 0
1 -145 161 0
1 -145 165 0
1 -145 -155 0
1 145 157 0
1 147 -145 0
1 147 199 0
1 -147 172 0
1 -147 -159 0
1 -147 -154 0
1 -147 -134 0
1 -147 -201 0
1 -147 174 0
1 147 -202 0
1 147 -161 0
1 147 -155 0
1 147 -157 0
1 -149 203 0
1 149 199 0
1 -149 -192 0
1 149 163 0
1 -149 -154 0
1 149 -158 0
1 149 -151 0
1 -149 -201 0
1 -149 204 0
1 -149 -165 0
1 149 -137 0
1 -151 199 0
1 151 205 0
1 151 -163 0
1 151 -154 0
1 151 -158 0
1 151 -204 0
1 151 -193 0
1 -151 155 0
1 151 157 0
1 -151 -149 0
1 159 -145 0
1 -159 104 0
1 159 -156 0
1 -159 -192 0
1 -159 80 0
1 159 153 0
1 -159 -75 0
1 159 -147 0
1 -159 -197 0
1 159 -161 0
1 -159 198 0
1 159 82 0
1 159 -78 0
1 -159 91 0
1 -161 145 0
1 -161 -159 0
1 -161 -153 0
1 -161 75 0
1 161 -88 0
1 161 -147 0
1 161 -106 0
1 -161 197 0
1 -161 193 0
1 161 -82 0
1 -161 78 0
1 172 145 0
1 -172 -119 0
1 172 -205 0
1 172 -156 0
1 -172 -164 0
1 -172 160 0
1 -172 88 0
1 172 174 0
1 172 197 0
1 172 198 0
1 -172 166 0
1 -172 91 0
1 174 -145 0
1 174 172 0
1 174 156 0
1 174 153 0
1 -174 -164 0
1 174 160 0
1 -174 88 0
1 174 -204 0
1 174 -197 0
1 -174 -198 0
1 -174 -162 0
1 174 -91 0
1 -153 168 0
1 -153 159 0
1 153 63 0
1 -153 -163 0
1 -153 206 0
1 153 179 0
1 153 170 0
1 -153 -165 0
1 -153 180 0
1 -198 -168 0
1 198 -172 0
1 198 -153 0
1 198 -163 0
1 198 170 0
1 198 -174 0
1 -198 -165 0
1 -198 -180 0
1 156 -207 0
1 -156 172 0
1 156 144 0
1 -156 163 0
1 156 208 0
1 -156 201 0
1 156 -197 0
1 -156 -161 0
1 -156 -165 0
1 197 -199 0
1 197 -172 0
1 197 156 0
1 -197 -159 0
1 -197 -163 0
1 -197 206 0
1 197 -208 0
1 197 -201 0
1 -197 174 0
1 197 -70 0
1 197 161 0
1 168 116 0
1 -168 199 0
1 -168 153 0
1 -168 164 0
1 -168 -160 0
1 168 -88 0
1 -168 -85 0
1 168 170 0
1 168 99 0
1 -168 198 0
1 168 91 0
1 168 87 0
1 -168 101 0
1 -170 -168 0
1 170 -153 0
1 -170 164 0
1 170 -160 0
1 -170 88 0
1 170 85 0
1 170 117 0
1 -170 99 0
1 170 -201 0
1 -170 -198 0
1 -170 166 0
1 170 -91 0
1 170 101 0
1 180 207 0
1 -180 -153 0
1 180 -164 0
1 180 160 0
1 180 173 0
1 180 -179 0
1 180 169 0
1 180 -99 0
1 180 198 0
1 180 -166 0
1 -180 -162 0
1 -180 209 0
1 -180 171 0
1 180 -178 0
1 180 101 0
1 179 -153 0
1 -179 -164 0
1 -179 -160 0
1 179 176 0
1 179 -169 0
1 179 208 0
1 -179 99 0
1 -179 198 0
1 179 162 0
1 179 209 0
1 179 -171 0
1 179 -101 0
1 160 -168 0
1 160 172 0
1 160 -162 0
1 160 75 0
1 160 185 0
1 -160 -175 0
1 -160 179 0
1 160 -170 0
1 160 -174 0
1 160 -186 0
1 -160 -177 0
1 160 -180 0
1 162 -168 0
1 162 185 0
1 162 160 0
1 162 175 0
1 162 -179 0
1 -162 -170 0
1 -162 -174 0
1 -162 78 0
1 162 177 0
1 -162 -180 0
1 164 168 0
1 164 80 0
1 -164 -210 0
1 164 206 0
1 -164 -179 0
1 -164 170 0
1 164 -174 0
1 -164 -166 0
1 -166 168 0
1 166 -164 0
1 166 -210 0
1 -166 179 0
1 166 170 0
1 166 -174 0
1 -166 82 0
1 -166 180 0
1 177 97 0
1 -177 -115 0
1 -177 175 0
1 -177 173 0
1 177 -169 0
1 -177 99 0
1 177 113 0
1 -177 -162 0
1 177 -209 0
1 177 -183 0
1 177 -171 0
1 177 -101 0
1 -175 97 0
1 -175 115 0
1 175 -173 0
1 175 206 0
1 175 -169 0
1 -175 -167 0
1 -175 -113 0
1 -175 162 0
1 -175 209 0
1 -175 177 0
1 -175 101 0
1 186 115 0
1 186 185 0
1 -186 -160 0
1 186 -173 0
1 -186 169 0
1 -186 113 0
1 186 -162 0
1 186 -182 0
1 186 209 0
1 186 -211 0
1 -186 171 0
1 185 181 0
1 -185 210 0
1 -185 173 0
1 -185 209 0
1 185 -169 0
1 -185 171 0
1 169 -175 0
1 -169 -85 0
1 -169 171 0
1 169 -186 0
1 -169 177 0
1 -169 -180 0
1 171 175 0
1 171 179 0
1 171 -169 0
1 -171 -87 0
1 171 -177 0
1 173 -185 0
1 173 88 0
1 -173 -175 0
1 -173 179 0
1 -173 186 0
1 -173 -180 0
1 209 185 0
1 209 -175 0
1 -209 -173 0
1 -209 -179 0
1 -209 186 0
1 209 -177 0
1 192 159 0
1 192 212 0
1 192 190 0
1 -192 143 0
1 -192 -141 0
1 192 151 0
1 192 -193 0
1 192 213 0
1 192 142 0
1 192 -140 0
1 192 149 0
1 193 -192 0
1 -193 -212 0
1 193 190 0
1 -193 143 0
1 193 -141 0
1 193 191 0
1 -193 -213 0
1 193 -142 0
1 -193 -140 0
1 193 149 0
1 205 172 0
1 -205 212 0
1 -205 -190 0
1 -205 204 0
1 205 -191 0
1 205 213 0
1 -205 195 0
1 205 194 0
1 205 -149 0
1 -204 205 0
1 -204 -212 0
1 204 -196 0
1 -204 214 0
1 204 -151 0
1 -204 174 0
1 -204 191 0
1 204 213 0
1 -204 -195 0
1 204 -194 0
1 -213 207 0
1 213 205 0
1 213 192 0
1 213 190 0
1 -213 208 0
1 213 201 0
1 -213 193 0
1 213 -189 0
1 -190 207 0
1 -190 -205 0
1 190 188 0
1 190 -208 0
1 -190 201 0
1 -190 204 0
1 -190 193 0
1 190 213 0
1 191 205 0
1 191 192 0
1 -191 212 0
1 191 -204 0
1 191 -193 0
1 191 131 0
1 212 132 0
1 212 204 0
1 -212 -193 0
1 -199 168 0
1 199 145 0
1 -199 196 0
1 199 -214 0
1 -199 151 0
1 199 147 0
1 -199 197 0
1 199 213 0
1 -199 -195 0
1 -199 194 0
1 -199 149 0
1 201 199 0
1 -201 156 0
1 -201 -190 0
1 201 196 0
1 201 214 0
1 -201 -151 0
1 -201 -170 0
1 201 -147 0
1 -201 -197 0
1 201 -213 0
1 201 195 0
1 201 194 0
1 -201 -149 0
1 207 203 0
1 -207 200 0
1 -207 190 0
1 207 -196 0
1 -207 215 0
1 -207 -213 0
1 207 -195 0
1 -207 -194 0
1 -207 180 0
1 208 207 0
1 208 200 0
1 208 156 0
1 208 -190 0
1 208 -214 0
1 208 -197 0
1 -208 195 0
1 208 194 0
1 -194 -207 0
1 194 199 0
1 -194 -205 0
1 194 -210 0
1 -194 -214 0
1 -194 208 0
1 -194 -201 0
1 -194 204 0
1 194 211 0
1 194 140 0
1 -214 -207 0
1 214 199 0
1 -214 -206 0
1 214 208 0
1 214 -201 0
1 -214 204 0
1 214 -211 0
1 214 194 0
1 195 -207 0
1 -195 -199 0
1 -195 -205 0
1 195 -196 0
1 195 208 0
1 -195 201 0
1 195 204 0
1 -195 -142 0
1 196 -207 0
1 -196 -199 0
1 -196 205 0
1 196 -143 0
1 -196 -204 0
1 -196 -195 0
1 -206 200 0
1 206 156 0
1 206 -153 0
1 206 -164 0
1 206 175 0
1 206 -214 0
1 206 215 0
1 206 202 0
1 -206 -197 0
1 -211 -203 0
1 211 200 0
1 211 -164 0
1 -211 -210 0
1 -211 -214 0
1 -211 -215 0
1 -211 202 0
1 -211 -166 0
1 -211 194 0
1 -210 203 0
1 -210 200 0
1 210 -164 0
1 -210 -185 0
1 -210 -214 0
1 -210 -215 0
1 -210 -202 0
1 210 166 0
1 210 211 0
1 -200 207 0
1 -200 -145 0
1 -200 210 0
1 -200 206 0
1 -200 202 0
1 200 -211 0
1 -202 207 0
1 -202 200 0
1 202 -210 0
1 -202 206 0
1 -202 147 0
1 -202 -211 0
1 203 207 0
1 -203 206 0
1 203 -208 0
1 203 -211 0
1 -215 -207 0
1 215 203 0
1 -215 210 0
1 215 -206 0
1 -215 151 0
1 215 -208 0
1 -215 211 0
